
#######################################################################
#
#                 Cambridge Crystallographic Data Centre
#                                CCDC 
# 
#######################################################################
# 
#  This CIF contains data from an original supplementary publication 
#  deposited with the CCDC, and may include chemical, crystal,   
#  experimental, refinement, atomic coordinates, 
#  anisotropic displacement parameters and molecular geometry data,
#  as required by the journal to which it was submitted. 
# 
#  This CIF is provided on the understanding that it is used for bona
#  fide research purposes only. It may contain copyright material 
#  of the CCDC or of third parties, and may not be copied or further 
#  disseminated in any form, whether machine-readable or not,  
#  except for the purpose of generating routine backup copies 
#  on your local computer system.
# 
#  For further information on the CCDC, data deposition and 
#  data retrieval see:
#                         www.ccdc.cam.ac.uk 
#
#  Bona fide researchers may freely download Mercury and enCIFer
#  from this site to visualise CIF-encoded structures and 
#  to carry out CIF format checking respectively. 
#
####################################################################### 

data_03il02
_database_code_depnum_ccdc_archive 'CCDC 264366'

_audit_creation_method           SHELXL-97
_chemical_name_systematic        
;
?
;
_chemical_name_common            ?
_chemical_melting_point          ?
_chemical_formula_moiety         ?
_chemical_formula_sum            'C14 H14 Hg N8 S2'
_chemical_formula_weight         559.04

loop_
_atom_type_symbol
_atom_type_description
_atom_type_scat_dispersion_real
_atom_type_scat_dispersion_imag
_atom_type_scat_source
Hg Hg -2.3894 9.2266 'International Tables Vol C Tables 4.2.6.8 and 6.1.1.4'
S S 0.1246 0.1234 'International Tables Vol C Tables 4.2.6.8 and 6.1.1.4'
N N 0.0061 0.0033 'International Tables Vol C Tables 4.2.6.8 and 6.1.1.4'
C C 0.0033 0.0016 'International Tables Vol C Tables 4.2.6.8 and 6.1.1.4'
H H 0.0000 0.0000 'International Tables Vol C Tables 4.2.6.8 and 6.1.1.4'

_symmetry_cell_setting           triclinic
_symmetry_space_group_name_H-M   P-1
_symmetry_Int_Tables_number      2


loop_
_symmetry_equiv_pos_as_xyz
'x, y, z'
'-x, -y, -z'

_cell_length_a                   7.4794(12)
_cell_length_b                   9.1383(14)
_cell_length_c                   13.893(2)
_cell_angle_alpha                105.114(3)
_cell_angle_beta                 93.672(3)
_cell_angle_gamma                101.819(3)
_cell_volume                     890.3(2)
_cell_formula_units_Z            2
_cell_measurement_temperature    293(2)
_cell_measurement_reflns_used    1020
_cell_measurement_theta_min      3.025
_cell_measurement_theta_max      28.105

_exptl_crystal_description       plate
_exptl_crystal_colour            colourless
_exptl_crystal_size_max          0.70
_exptl_crystal_size_mid          0.16
_exptl_crystal_size_min          0.03
_exptl_crystal_density_meas      ?
_exptl_crystal_density_diffrn    2.085
_exptl_crystal_density_method    'not measured'
_exptl_crystal_F_000             532
_exptl_absorpt_coefficient_mu    8.893
_exptl_absorpt_correction_type   SADABS
_exptl_absorpt_correction_T_min  0.0625
_exptl_absorpt_correction_T_max  0.7762
_exptl_absorpt_process_details   ?

_exptl_special_details           
;
?
;

_diffrn_ambient_temperature      293(2)
_diffrn_radiation_wavelength     0.71073
_diffrn_radiation_type           MoK\a
_diffrn_radiation_source         'fine-focus sealed tube'
_diffrn_radiation_monochromator  graphite
_diffrn_measurement_device_type  'Bruker SMART CCD-1000'
_diffrn_measurement_method       'omega scans'
_diffrn_detector_area_resol_mean ?
_diffrn_standards_number         ?
_diffrn_standards_interval_count ?
_diffrn_standards_interval_time  ?
_diffrn_standards_decay_%        0
_diffrn_reflns_number            11074
_diffrn_reflns_av_R_equivalents  0.0366
_diffrn_reflns_av_sigmaI/netI    0.0437
_diffrn_reflns_limit_h_min       -9
_diffrn_reflns_limit_h_max       9
_diffrn_reflns_limit_k_min       -12
_diffrn_reflns_limit_k_max       11
_diffrn_reflns_limit_l_min       0
_diffrn_reflns_limit_l_max       18
_diffrn_reflns_theta_min         1.53
_diffrn_reflns_theta_max         28.31
_reflns_number_total             4206
_reflns_number_gt                3658
_reflns_threshold_expression     >2sigma(I)

_computing_data_collection       'SMART Software (Bruker, 1994)'
_computing_cell_refinement       'SMART Software (Bruker, 1994)'
_computing_data_reduction        'SAINT Software (Bruker, 1994)'
_computing_structure_solution    'SHELXS-97 (Sheldrick, 1990)'
_computing_structure_refinement  'SHELXL-97 (Sheldrick, 1997)'
_computing_molecular_graphics    'PLATON (Spek, 2002)'
_computing_publication_material  'SHELXL-97 (Sheldrick, 1997)'

_refine_special_details          
;
Refinement of F^2^ against ALL reflections. The weighted R-factor wR
and
goodness of fit S are based on F^2^, conventional R-factors R are
based
on F, with F set to zero for negative F^2^. The threshold expression
of
F^2^ > 2sigma(F^2^) is used only for calculating R-factors(gt) etc.
and is
not relevant to the choice of reflections for refinement. R-factors
based
on F^2^ are statistically about twice as large as those based on F,
and R-
factors based on ALL data will be even larger.
;

_refine_ls_structure_factor_coef Fsqd
_refine_ls_matrix_type           full
_refine_ls_weighting_scheme      calc
_refine_ls_weighting_details     
;
calc w=1/[\s^2^(Fo^2^)+(0.0247P)^2^+0.9087P] where
P=(Fo^2^+2Fc^2^)/3
;
_atom_sites_solution_primary     direct
_atom_sites_solution_secondary   difmap
_atom_sites_solution_hydrogens   difmap
_refine_ls_hydrogen_treatment    constr
_refine_ls_extinction_method     none
_refine_ls_extinction_coef       ?
_refine_ls_number_reflns         4206
_refine_ls_number_parameters     226
_refine_ls_number_restraints     0
_refine_ls_R_factor_all          0.0367
_refine_ls_R_factor_gt           0.0274
_refine_ls_wR_factor_ref         0.0706
_refine_ls_wR_factor_gt          0.0656
_refine_ls_goodness_of_fit_ref   1.040
_refine_ls_restrained_S_all      1.040
_refine_ls_shift/su_max          0.001
_refine_ls_shift/su_mean         0.000

loop_
_atom_site_label
_atom_site_type_symbol
_atom_site_fract_x
_atom_site_fract_y
_atom_site_fract_z
_atom_site_U_iso_or_equiv
_atom_site_adp_type
_atom_site_occupancy
_atom_site_symmetry_multiplicity
_atom_site_calc_flag
_atom_site_refinement_flags
_atom_site_disorder_assembly
_atom_site_disorder_group
Hg1 Hg 0.67946(2) 0.19599(2) 0.237886(13) 0.04055(7) Uani 1 1 d . . .
S1 S 0.88816(18) 0.01117(15) 0.22228(9) 0.0442(3) Uani 1 1 d . . .
S2 S 0.80492(19) 0.46835(15) 0.23176(10) 0.0514(3) Uani 1 1 d . . .
N11 N 0.4338(5) 0.2778(5) 0.3514(3) 0.0428(9) Uani 1 1 d . . .
N12 N 0.6948(5) 0.1325(4) 0.3971(3) 0.0379(8) Uani 1 1 d . . .
N13 N 0.8261(6) 0.0585(5) 0.4210(3) 0.0455(9) Uani 1 1 d . . .
N14 N 1.0456(7) -0.0687(6) 0.3674(3) 0.0637(14) Uani 1 1 d . . .
H14A H 1.0606 -0.0699 0.4350 0.076 Uiso 1 1 d R . .
H14B H 1.1042 -0.0984 0.3275 0.076 Uiso 1 1 d R . .
N21 N 0.4010(5) -0.0416(4) 0.1569(3) 0.0430(9) Uani 1 1 d . . .
N22 N 0.4798(5) 0.2303(4) 0.1055(3) 0.0304(7) Uani 1 1 d . . .
N23 N 0.5104(5) 0.3670(4) 0.0807(3) 0.0359(8) Uani 1 1 d . . .
N24 N 0.6844(6) 0.6081(5) 0.1085(3) 0.0506(10) Uani 1 1 d . . .
H24A H 0.7510 0.6687 0.1384 0.061 Uiso 1 1 d R . .
H24B H 0.6281 0.6116 0.0623 0.061 Uiso 1 1 d R . .
C11 C 0.3041(7) 0.3496(7) 0.3294(4) 0.0550(13) Uani 1 1 d . . .
H11 H 0.2907 0.3594 0.2559 0.066 Uiso 1 1 d R . .
C12 C 0.1902(8) 0.4031(8) 0.3970(5) 0.0679(18) Uani 1 1 d . . .
H12 H 0.0887 0.4484 0.3777 0.081 Uiso 1 1 d R . .
C13 C 0.2071(8) 0.3803(8) 0.4900(5) 0.0666(17) Uani 1 1 d . . .
H13 H 0.1309 0.4149 0.5376 0.080 Uiso 1 1 d R . .
C14 C 0.3407(7) 0.3077(7) 0.5146(4) 0.0540(13) Uani 1 1 d . . .
H14 H 0.3609 0.2882 0.5746 0.065 Uiso 1 1 d R . .
C15 C 0.4515(6) 0.2570(5) 0.4422(4) 0.0398(10) Uani 1 1 d . . .
C16 C 0.5941(7) 0.1778(6) 0.4637(4) 0.0450(11) Uani 1 1 d . . .
H16 H 0.6145 0.1628 0.5233 0.054 Uiso 1 1 d R . .
C17 C 0.9153(7) 0.0035(5) 0.3453(4) 0.0415(10) Uani 1 1 d . . .
C21 C 0.3618(8) -0.1781(6) 0.1786(5) 0.0563(14) Uani 1 1 d . . .
H21 H 0.4294 -0.1788 0.2268 0.068 Uiso 1 1 d R . .
C22 C 0.2181(9) -0.3004(6) 0.1246(5) 0.0655(17) Uani 1 1 d . . .
H22 H 0.2091 -0.3710 0.1512 0.079 Uiso 1 1 d R . .
C23 C 0.1189(8) -0.2835(6) 0.0468(5) 0.0601(15) Uani 1 1 d . . .
H23 H 0.0155 -0.3538 0.0129 0.072 Uiso 1 1 d R . .
C24 C 0.1567(7) -0.1456(6) 0.0217(4) 0.0459(11) Uani 1 1 d . . .
H24 H 0.0947 -0.1217 -0.0283 0.055 Uiso 1 1 d R . .
C25 C 0.3001(6) -0.0263(5) 0.0795(3) 0.0348(9) Uani 1 1 d . . .
C26 C 0.3434(6) 0.1220(5) 0.0552(3) 0.0369(9) Uani 1 1 d . . .
H26 H 0.2655 0.1398 0.0019 0.044 Uiso 1 1 d R . .
C27 C 0.6531(6) 0.4763(5) 0.1353(3) 0.0345(9) Uani 1 1 d . . .

loop_
_atom_site_aniso_label
_atom_site_aniso_U_11
_atom_site_aniso_U_22
_atom_site_aniso_U_33
_atom_site_aniso_U_23
_atom_site_aniso_U_13
_atom_site_aniso_U_12
Hg1 0.04760(11) 0.04396(11) 0.03478(10) 0.01745(7) 0.00053(7) 0.01413(8)
S1 0.0515(7) 0.0503(7) 0.0321(6) 0.0073(5) 0.0019(5) 0.0214(5)
S2 0.0568(8) 0.0461(7) 0.0432(7) 0.0182(5) -0.0162(6) -0.0063(6)
N11 0.045(2) 0.047(2) 0.038(2) 0.0097(17) 0.0065(17) 0.0174(18)
N12 0.046(2) 0.0344(19) 0.037(2) 0.0120(15) 0.0046(16) 0.0139(16)
N13 0.058(3) 0.055(2) 0.034(2) 0.0174(18) 0.0050(18) 0.031(2)
N14 0.080(3) 0.082(3) 0.044(3) 0.016(2) 0.004(2) 0.057(3)
N21 0.043(2) 0.039(2) 0.048(2) 0.0145(17) 0.0110(18) 0.0073(17)
N22 0.0325(17) 0.0308(17) 0.0283(17) 0.0101(13) 0.0023(14) 0.0064(14)
N23 0.0386(19) 0.0348(19) 0.037(2) 0.0169(15) -0.0006(15) 0.0062(15)
N24 0.051(2) 0.037(2) 0.060(3) 0.0207(19) -0.011(2) -0.0014(18)
C11 0.050(3) 0.071(4) 0.043(3) 0.007(2) -0.004(2) 0.025(3)
C12 0.050(3) 0.085(4) 0.061(4) -0.007(3) -0.009(3) 0.038(3)
C13 0.051(3) 0.088(4) 0.054(4) -0.006(3) 0.012(3) 0.030(3)
C14 0.051(3) 0.068(3) 0.043(3) 0.010(2) 0.015(2) 0.020(3)
C15 0.038(2) 0.038(2) 0.039(2) 0.0046(19) 0.0056(19) 0.0075(18)
C16 0.051(3) 0.052(3) 0.039(3) 0.017(2) 0.012(2) 0.021(2)
C17 0.047(3) 0.041(2) 0.040(3) 0.0114(19) 0.004(2) 0.016(2)
C21 0.065(3) 0.045(3) 0.069(4) 0.027(3) 0.019(3) 0.016(3)
C22 0.080(4) 0.034(3) 0.089(5) 0.025(3) 0.038(4) 0.010(3)
C23 0.054(3) 0.036(3) 0.079(4) 0.005(3) 0.019(3) -0.002(2)
C24 0.038(2) 0.044(3) 0.046(3) 0.001(2) 0.010(2) 0.001(2)
C25 0.029(2) 0.036(2) 0.037(2) 0.0065(17) 0.0123(17) 0.0047(17)
C26 0.034(2) 0.040(2) 0.035(2) 0.0099(18) 0.0044(18) 0.0053(18)
C27 0.039(2) 0.032(2) 0.033(2) 0.0095(17) 0.0054(17) 0.0077(17)

_geom_special_details            
;
All esds (except the esd in the dihedral angle between two l.s.
planes)
are estimated using the full covariance matrix. The cell esds are
taken
into account individually in the estimation of esds in distances,
angles
and torsion angles; correlations between esds in cell parameters are
only
used when they are defined by crystal symmetry. An approximate
(isotropic)
treatment of cell esds is used for estimating esds involving l.s.
planes.
;

loop_
_geom_bond_atom_site_label_1
_geom_bond_atom_site_label_2
_geom_bond_distance
_geom_bond_site_symmetry_2
_geom_bond_publ_flag
Hg1 N22 2.419(3) . y
Hg1 N12 2.430(4) . y
Hg1 S2 2.4993(13) . y
Hg1 S1 2.5036(12) . y
Hg1 N11 2.596(4) . y
Hg1 N21 2.625(4) . y
S1 C17 1.729(5) . ?
S2 C27 1.726(4) . ?
N11 C15 1.326(6) . ?
N11 C11 1.339(6) . ?
N12 C16 1.270(6) . ?
N12 N13 1.370(5) . ?
N13 C17 1.325(6) . ?
N14 C17 1.346(6) . ?
N14 H14A 0.9411 . ?
N14 H14B 0.7580 . ?
N21 C25 1.329(6) . ?
N21 C21 1.337(6) . ?
N22 C26 1.282(5) . ?
N22 N23 1.360(5) . ?
N23 C27 1.333(6) . ?
N24 C27 1.332(6) . ?
N24 H24A 0.6838 . ?
N24 H24B 0.7565 . ?
C11 C12 1.371(8) . ?
C11 H11 1.0480 . ?
C12 C13 1.364(9) . ?
C12 H12 0.9899 . ?
C13 C14 1.379(8) . ?
C13 H13 0.9361 . ?
C14 C15 1.391(7) . ?
C14 H14 0.9073 . ?
C15 C16 1.462(7) . ?
C16 H16 0.8824 . ?
C21 C22 1.391(9) . ?
C21 H21 0.8162 . ?
C22 C23 1.331(9) . ?
C22 H22 0.8174 . ?
C23 C24 1.373(8) . ?
C23 H23 0.9080 . ?
C24 C25 1.391(6) . ?
C24 H24 0.9086 . ?
C25 C26 1.459(6) . ?
C26 H26 0.9793 . ?

loop_
_geom_angle_atom_site_label_1
_geom_angle_atom_site_label_2
_geom_angle_atom_site_label_3
_geom_angle
_geom_angle_site_symmetry_1
_geom_angle_site_symmetry_3
_geom_angle_publ_flag
N22 Hg1 N12 145.41(12) . . y
N22 Hg1 S2 75.26(8) . . y
N12 Hg1 S2 120.17(9) . . y
N22 Hg1 S1 127.75(8) . . y
N12 Hg1 S1 74.49(9) . . y
S2 Hg1 S1 119.35(5) . . y
N22 Hg1 N11 84.60(12) . . y
N12 Hg1 N11 65.04(12) . . y
S2 Hg1 N11 92.79(10) . . y
S1 Hg1 N11 137.52(9) . . y
N22 Hg1 N21 65.17(12) . . y
N12 Hg1 N21 92.49(13) . . y
S2 Hg1 N21 140.27(9) . . y
S1 Hg1 N21 89.14(9) . . y
N11 Hg1 N21 80.52(13) . . y
C17 S1 Hg1 99.80(16) . . ?
C27 S2 Hg1 99.85(15) . . ?
C15 N11 C11 118.4(4) . . ?
C15 N11 Hg1 115.4(3) . . ?
C11 N11 Hg1 125.9(3) . . ?
C16 N12 N13 117.9(4) . . ?
C16 N12 Hg1 121.7(3) . . ?
N13 N12 Hg1 120.1(3) . . ?
C17 N13 N12 114.4(4) . . ?
C17 N14 H14A 114.4 . . ?
C17 N14 H14B 119.5 . . ?
H14A N14 H14B 125.9 . . ?
C25 N21 C21 117.7(4) . . ?
C25 N21 Hg1 114.3(3) . . ?
C21 N21 Hg1 127.6(4) . . ?
C26 N22 N23 117.1(4) . . ?
C26 N22 Hg1 122.4(3) . . ?
N23 N22 Hg1 120.6(3) . . ?
C27 N23 N22 114.9(3) . . ?
C27 N24 H24A 116.6 . . ?
C27 N24 H24B 118.8 . . ?
H24A N24 H24B 124.5 . . ?
N11 C11 C12 122.7(5) . . ?
N11 C11 H11 116.0 . . ?
C12 C11 H11 121.3 . . ?
C13 C12 C11 118.9(5) . . ?
C13 C12 H12 119.3 . . ?
C11 C12 H12 121.5 . . ?
C12 C13 C14 119.4(5) . . ?
C12 C13 H13 120.9 . . ?
C14 C13 H13 119.7 . . ?
C13 C14 C15 118.4(5) . . ?
C13 C14 H14 124.8 . . ?
C15 C14 H14 116.7 . . ?
N11 C15 C14 122.1(5) . . ?
N11 C15 C16 117.1(4) . . ?
C14 C15 C16 120.8(5) . . ?
N12 C16 C15 120.2(4) . . ?
N12 C16 H16 118.5 . . ?
C15 C16 H16 121.3 . . ?
N13 C17 N14 115.3(4) . . ?
N13 C17 S1 129.3(4) . . ?
N14 C17 S1 115.4(4) . . ?
N21 C21 C22 122.2(6) . . ?
N21 C21 H21 112.2 . . ?
C22 C21 H21 125.6 . . ?
C23 C22 C21 119.3(5) . . ?
C23 C22 H22 132.0 . . ?
C21 C22 H22 108.6 . . ?
C22 C23 C24 120.0(5) . . ?
C22 C23 H23 123.8 . . ?
C24 C23 H23 115.7 . . ?
C23 C24 C25 118.2(5) . . ?
C23 C24 H24 126.6 . . ?
C25 C24 H24 115.2 . . ?
N21 C25 C24 122.5(4) . . ?
N21 C25 C26 117.9(4) . . ?
C24 C25 C26 119.6(4) . . ?
N22 C26 C25 119.9(4) . . ?
N22 C26 H26 120.2 . . ?
C25 C26 H26 119.8 . . ?
N24 C27 N23 114.3(4) . . ?
N24 C27 S2 116.3(3) . . ?
N23 C27 S2 129.4(3) . . ?

loop_
_geom_torsion_atom_site_label_1
_geom_torsion_atom_site_label_2
_geom_torsion_atom_site_label_3
_geom_torsion_atom_site_label_4
_geom_torsion
_geom_torsion_site_symmetry_1
_geom_torsion_site_symmetry_2
_geom_torsion_site_symmetry_3
_geom_torsion_site_symmetry_4
_geom_torsion_publ_flag
N22 Hg1 S1 C17 -159.4(2) . . . . ?
N12 Hg1 S1 C17 -9.48(19) . . . . ?
S2 Hg1 S1 C17 106.77(18) . . . . ?
N11 Hg1 S1 C17 -27.4(2) . . . . ?
N21 Hg1 S1 C17 -102.31(19) . . . . ?
N22 Hg1 S2 C27 -0.39(17) . . . . ?
N12 Hg1 S2 C27 -146.65(18) . . . . ?
S1 Hg1 S2 C27 124.95(16) . . . . ?
N11 Hg1 S2 C27 -84.06(18) . . . . ?
N21 Hg1 S2 C27 -5.6(2) . . . . ?
N22 Hg1 N11 C15 169.0(3) . . . . ?
N12 Hg1 N11 C15 6.0(3) . . . . ?
S2 Hg1 N11 C15 -116.1(3) . . . . ?
S1 Hg1 N11 C15 25.1(4) . . . . ?
N21 Hg1 N11 C15 103.3(3) . . . . ?
N22 Hg1 N11 C11 -17.0(4) . . . . ?
N12 Hg1 N11 C11 -180.0(5) . . . . ?
S2 Hg1 N11 C11 57.9(4) . . . . ?
S1 Hg1 N11 C11 -160.9(4) . . . . ?
N21 Hg1 N11 C11 -82.7(4) . . . . ?
N22 Hg1 N12 C16 -37.3(5) . . . . ?
S2 Hg1 N12 C16 71.6(4) . . . . ?
S1 Hg1 N12 C16 -173.1(4) . . . . ?
N11 Hg1 N12 C16 -6.4(4) . . . . ?
N21 Hg1 N12 C16 -84.7(4) . . . . ?
N22 Hg1 N12 N13 148.9(3) . . . . ?
S2 Hg1 N12 N13 -102.2(3) . . . . ?
S1 Hg1 N12 N13 13.1(3) . . . . ?
N11 Hg1 N12 N13 179.8(4) . . . . ?
N21 Hg1 N12 N13 101.5(3) . . . . ?
C16 N12 N13 C17 174.7(5) . . . . ?
Hg1 N12 N13 C17 -11.2(6) . . . . ?
N22 Hg1 N21 C25 4.7(3) . . . . ?
N12 Hg1 N21 C25 157.3(3) . . . . ?
S2 Hg1 N21 C25 10.2(4) . . . . ?
S1 Hg1 N21 C25 -128.2(3) . . . . ?
N11 Hg1 N21 C25 93.1(3) . . . . ?
N22 Hg1 N21 C21 177.9(5) . . . . ?
N12 Hg1 N21 C21 -29.5(4) . . . . ?
S2 Hg1 N21 C21 -176.6(4) . . . . ?
S1 Hg1 N21 C21 45.0(4) . . . . ?
N11 Hg1 N21 C21 -93.7(4) . . . . ?
N12 Hg1 N22 C26 -57.7(4) . . . . ?
S2 Hg1 N22 C26 -180.0(3) . . . . ?
S1 Hg1 N22 C26 64.1(4) . . . . ?
N11 Hg1 N22 C26 -85.7(3) . . . . ?
N21 Hg1 N22 C26 -3.6(3) . . . . ?
N12 Hg1 N22 N23 123.2(3) . . . . ?
S2 Hg1 N22 N23 0.9(3) . . . . ?
S1 Hg1 N22 N23 -115.0(3) . . . . ?
N11 Hg1 N22 N23 95.2(3) . . . . ?
N21 Hg1 N22 N23 177.3(3) . . . . ?
C26 N22 N23 C27 179.7(4) . . . . ?
Hg1 N22 N23 C27 -1.1(5) . . . . ?
C15 N11 C11 C12 0.4(9) . . . . ?
Hg1 N11 C11 C12 -173.4(5) . . . . ?
N11 C11 C12 C13 -1.1(10) . . . . ?
C11 C12 C13 C14 1.6(10) . . . . ?
C12 C13 C14 C15 -1.4(9) . . . . ?
C11 N11 C15 C14 -0.3(7) . . . . ?
Hg1 N11 C15 C14 174.2(4) . . . . ?
C11 N11 C15 C16 179.8(5) . . . . ?
Hg1 N11 C15 C16 -5.7(5) . . . . ?
C13 C14 C15 N11 0.8(8) . . . . ?
C13 C14 C15 C16 -179.3(5) . . . . ?
N13 N12 C16 C15 -179.8(4) . . . . ?
Hg1 N12 C16 C15 6.2(7) . . . . ?
N11 C15 C16 N12 0.1(7) . . . . ?
C14 C15 C16 N12 -179.7(5) . . . . ?
N12 N13 C17 N14 179.6(5) . . . . ?
N12 N13 C17 S1 -0.4(7) . . . . ?
Hg1 S1 C17 N13 10.1(5) . . . . ?
Hg1 S1 C17 N14 -169.9(4) . . . . ?
C25 N21 C21 C22 -1.6(8) . . . . ?
Hg1 N21 C21 C22 -174.6(4) . . . . ?
N21 C21 C22 C23 2.0(9) . . . . ?
C21 C22 C23 C24 -1.2(9) . . . . ?
C22 C23 C24 C25 0.1(8) . . . . ?
C21 N21 C25 C24 0.4(7) . . . . ?
Hg1 N21 C25 C24 174.4(3) . . . . ?
C21 N21 C25 C26 -179.6(4) . . . . ?
Hg1 N21 C25 C26 -5.7(5) . . . . ?
C23 C24 C25 N21 0.3(7) . . . . ?
C23 C24 C25 C26 -179.7(4) . . . . ?
N23 N22 C26 C25 -178.6(4) . . . . ?
Hg1 N22 C26 C25 2.3(6) . . . . ?
N21 C25 C26 N22 2.7(6) . . . . ?
C24 C25 C26 N22 -177.3(4) . . . . ?
N22 N23 C27 N24 178.4(4) . . . . ?
N22 N23 C27 S2 0.7(6) . . . . ?
Hg1 S2 C27 N24 -177.6(3) . . . . ?
Hg1 S2 C27 N23 0.0(4) . . . . ?

loop_
_geom_hbond_atom_site_label_D
_geom_hbond_atom_site_label_H
_geom_hbond_atom_site_label_A
_geom_hbond_distance_DH
_geom_hbond_distance_HA
_geom_hbond_distance_DA
_geom_hbond_angle_DHA
_geom_hbond_site_symmetry_A
N14 H14A N13 0.94 2.09 3.005(6) 163.5 2_756
N24 H24A S1 0.68 2.97 3.570(4) 147.8 1_565
N24 H24B N23 0.76 2.25 3.006(6) 173.8 2_665

_diffrn_measured_fraction_theta_max 0.952
_diffrn_reflns_theta_full        28.31
_diffrn_measured_fraction_theta_full 0.952
_refine_diff_density_max         0.769
_refine_diff_density_min         -1.256
_refine_diff_density_rms         0.120


