  
data_2 
  
_audit_creation_method            SHELXL-97 
_chemical_name_systematic 
; 
 ? 
; 
_chemical_name_common             ? 
_chemical_melting_point           ? 
_chemical_formula_moiety          ? 
_chemical_formula_sum 
 'C28 H24 Cu N8 O7' 
_chemical_formula_weight          648.09 
  
loop_ 
 _atom_type_symbol 
 _atom_type_description 
 _atom_type_scat_dispersion_real 
 _atom_type_scat_dispersion_imag 
 _atom_type_scat_source 
 'C'  'C'   0.0033   0.0016 
 'International Tables Vol C Tables 4.2.6.8 and 6.1.1.4' 
 'H'  'H'   0.0000   0.0000 
 'International Tables Vol C Tables 4.2.6.8 and 6.1.1.4' 
 'N'  'N'   0.0061   0.0033 
 'International Tables Vol C Tables 4.2.6.8 and 6.1.1.4' 
 'O'  'O'   0.0106   0.0060 
 'International Tables Vol C Tables 4.2.6.8 and 6.1.1.4' 
 'Cu'  'Cu'   0.3201   1.2651 
 'International Tables Vol C Tables 4.2.6.8 and 6.1.1.4' 
  
_symmetry_cell_setting            Triclinic 
_symmetry_space_group_name_H-M    P-1 
  
loop_ 
 _symmetry_equiv_pos_as_xyz 
 'x, y, z' 
 '-x, -y, -z' 
  
_cell_length_a                    8.197(2) 
_cell_length_b                    11.793(3) 
_cell_length_c                    15.866(4) 
_cell_angle_alpha                 102.210(3) 
_cell_angle_beta                  104.612(3) 
_cell_angle_gamma                 102.499(3) 
_cell_volume                      1390.2(6) 
_cell_formula_units_Z             2 
_cell_measurement_temperature     293(2) 
_cell_measurement_reflns_used     3497 
_cell_measurement_theta_min       2.592 
_cell_measurement_theta_max       26.608 
  
_exptl_crystal_description        plane 
_exptl_crystal_colour             blue 
_exptl_crystal_size_max           0.37 
_exptl_crystal_size_mid           0.26 
_exptl_crystal_size_min           0.08 
_exptl_crystal_density_meas       ? 
_exptl_crystal_density_diffrn     1.548 
_exptl_crystal_density_method     'not measured' 
_exptl_crystal_F_000              666 
_exptl_absorpt_coefficient_mu     0.849 
_exptl_absorpt_correction_type    multi-scan
_exptl_absorpt_correction_T_min   0.7441 
_exptl_absorpt_correction_T_max   0.9352 
_exptl_absorpt_process_details    sadabs 
  
_exptl_special_details 
; 
 ? 
; 
  
_diffrn_ambient_temperature       293(2) 
_diffrn_radiation_wavelength      0.71073 
_diffrn_radiation_type            MoK\a 
_diffrn_radiation_source          'fine-focus sealed tube' 
_diffrn_radiation_monochromator   graphite 
_diffrn_measurement_device_type   'CCD area detector' 
_diffrn_measurement_method        'phi and omega scans' 
_diffrn_detector_area_resol_mean  ? 
_diffrn_standards_number          ? 
_diffrn_standards_interval_count  ? 
_diffrn_standards_interval_time   ? 
_diffrn_standards_decay_%         ? 
_diffrn_reflns_number             7515 
_diffrn_reflns_av_R_equivalents   0.0182 
_diffrn_reflns_av_sigmaI/netI     0.0391 
_diffrn_reflns_limit_h_min        -9 
_diffrn_reflns_limit_h_max        9 
_diffrn_reflns_limit_k_min        -14 
_diffrn_reflns_limit_k_max        13 
_diffrn_reflns_limit_l_min        -19 
_diffrn_reflns_limit_l_max        13 
_diffrn_reflns_theta_min          1.84 
_diffrn_reflns_theta_max          25.50 
_reflns_number_total              5066 
_reflns_number_gt                 4469 
_reflns_threshold_expression      >2sigma(I) 
  
_computing_data_collection        'Bruker SMART' 
_computing_cell_refinement        'Bruker SMART' 
_computing_data_reduction         'Bruker SAINT' 
_computing_structure_solution     'SHELXS-97 (Sheldrick, 1990)' 
_computing_structure_refinement   'SHELXL-97 (Sheldrick, 1997)' 
_computing_molecular_graphics     'Bruker SHELXTL' 
_computing_publication_material   'Bruker SHELXTL' 
  
_refine_special_details 
; 
 Refinement of F^2^ against ALL reflections.  The weighted R-factor wR and 
 goodness of fit S are based on F^2^, conventional R-factors R are based 
 on F, with F set to zero for negative F^2^. The threshold expression of 
 F^2^ > 2sigma(F^2^) is used only for calculating R-factors(gt) etc. and is 
 not relevant to the choice of reflections for refinement.  R-factors based 
 on F^2^ are statistically about twice as large as those based on F, and R- 
 factors based on ALL data will be even larger. 
; 
  
_refine_ls_structure_factor_coef  Fsqd 
_refine_ls_matrix_type            full 
_refine_ls_weighting_scheme       calc 
_refine_ls_weighting_details 
 'calc w=1/[\s^2^(Fo^2^)+(0.0530P)^2^+0.3821P] where P=(Fo^2^+2Fc^2^)/3' 
_atom_sites_solution_primary      direct 
_atom_sites_solution_secondary    difmap 
_atom_sites_solution_hydrogens    geom 
_refine_ls_hydrogen_treatment     mixed 
_refine_ls_extinction_method      none 
_refine_ls_extinction_coef        ? 
_refine_ls_number_reflns          5066 
_refine_ls_number_parameters      407 
_refine_ls_number_restraints      3 
_refine_ls_R_factor_all           0.0454 
_refine_ls_R_factor_gt            0.0399 
_refine_ls_wR_factor_ref          0.1023 
_refine_ls_wR_factor_gt           0.0992 
_refine_ls_goodness_of_fit_ref    1.067 
_refine_ls_restrained_S_all       1.067 
_refine_ls_shift/su_max           0.000 
_refine_ls_shift/su_mean          0.000 
  
loop_ 
 _atom_site_label 
 _atom_site_type_symbol 
 _atom_site_fract_x 
 _atom_site_fract_y 
 _atom_site_fract_z 
 _atom_site_U_iso_or_equiv 
 _atom_site_adp_type 
 _atom_site_occupancy 
 _atom_site_symmetry_multiplicity 
 _atom_site_calc_flag 
 _atom_site_refinement_flags 
 _atom_site_disorder_assembly 
 _atom_site_disorder_group 
Cu1 Cu 0.02372(4) 0.27534(2) 0.494297(18) 0.02901(11) Uani 1 1 d . . . 
C1 C 0.1738(4) 0.4162(2) 0.38117(18) 0.0402(6) Uani 1 1 d . . . 
H1 H 0.2064 0.4810 0.4329 0.048 Uiso 1 1 calc R . . 
C2 C 0.2224(4) 0.4360(2) 0.30740(17) 0.0393(6) Uani 1 1 d . . . 
H2 H 0.2874 0.5124 0.3097 0.047 Uiso 1 1 calc R . . 
C3 C 0.1725(3) 0.3400(2) 0.22942(16) 0.0323(5) Uani 1 1 d . . . 
C4 C 0.0774(3) 0.2278(2) 0.22983(17) 0.0353(6) Uani 1 1 d . . . 
H4 H 0.0432 0.1613 0.1791 0.042 Uiso 1 1 calc R . . 
C5 C 0.0347(3) 0.2163(2) 0.30658(17) 0.0363(6) Uani 1 1 d . . . 
H5 H -0.0305 0.1409 0.3060 0.044 Uiso 1 1 calc R . . 
C6 C 0.2220(3) 0.3614(2) 0.15113(17) 0.0366(6) Uani 1 1 d . . . 
C7 C 0.2666(3) 0.3219(2) 0.02328(17) 0.0378(6) Uani 1 1 d . . . 
C8 C 0.2794(3) 0.2494(2) -0.06050(16) 0.0355(6) Uani 1 1 d . . . 
C9 C 0.3493(4) 0.3058(3) -0.11669(19) 0.0479(7) Uani 1 1 d . . . 
H9 H 0.3844 0.3898 -0.1030 0.057 Uiso 1 1 calc R . . 
C10 C 0.3660(4) 0.2351(3) -0.19349(19) 0.0513(8) Uani 1 1 d . . . 
H32 H 0.4139 0.2702 -0.2323 0.062 Uiso 1 1 calc R . . 
C11 C 0.3104(4) 0.1122(3) -0.2111(2) 0.0535(8) Uani 1 1 d . . . 
H11 H 0.3215 0.0651 -0.2632 0.064 Uiso 1 1 calc R . . 
C12 C 0.2287(4) 0.1245(2) -0.08392(19) 0.0459(7) Uani 1 1 d . . . 
H31 H 0.1835 0.0868 -0.0454 0.055 Uiso 1 1 calc R . . 
C13 C -0.0862(3) 0.1147(2) 0.60322(17) 0.0346(6) Uani 1 1 d . . . 
H14 H -0.0873 0.0546 0.5544 0.042 Uiso 1 1 calc R . . 
C14 C -0.1342(3) 0.0813(2) 0.67308(17) 0.0360(6) Uani 1 1 d . . . 
H15 H -0.1665 0.0001 0.6714 0.043 Uiso 1 1 calc R . . 
C15 C -0.1344(3) 0.1695(2) 0.74612(16) 0.0334(5) Uani 1 1 d . . . 
C16 C -0.0842(4) 0.2895(2) 0.74607(18) 0.0421(6) Uani 1 1 d . . . 
H17 H -0.0819 0.3511 0.7943 0.050 Uiso 1 1 calc R . . 
C17 C -0.0377(4) 0.3157(2) 0.67326(18) 0.0406(6) Uani 1 1 d . . . 
H18 H -0.0049 0.3963 0.6734 0.049 Uiso 1 1 calc R . . 
C18 C -0.1892(3) 0.1368(2) 0.82056(16) 0.0351(6) Uani 1 1 d . . . 
C19 C -0.2468(3) 0.1656(2) 0.94518(17) 0.0372(6) Uani 1 1 d . . . 
C20 C -0.2675(3) 0.2329(2) 1.02826(17) 0.0390(6) Uani 1 1 d . . . 
C21 C -0.3478(4) 0.1722(3) 1.07922(19) 0.0495(7) Uani 1 1 d . . . 
H23 H -0.3893 0.0882 1.0612 0.059 Uiso 1 1 calc R . . 
C22 C -0.3650(5) 0.2386(3) 1.1570(2) 0.0625(9) Uani 1 1 d . . . 
H33 H -0.4196 0.2003 1.1923 0.075 Uiso 1 1 calc R . . 
C23 C -0.3013(5) 0.3606(4) 1.1817(2) 0.0678(10) Uani 1 1 d . . . 
H24 H -0.3136 0.4041 1.2347 0.081 Uiso 1 1 calc R . . 
C24 C -0.2075(4) 0.3574(3) 1.0580(2) 0.0550(8) Uani 1 1 d . . . 
H26 H -0.1548 0.3981 1.0232 0.066 Uiso 1 1 calc R . . 
C25 C -0.4926(4) 0.2391(3) 0.3676(2) 0.0545(8) Uani 1 1 d . . . 
H27A H -0.5635 0.1664 0.3208 0.082 Uiso 1 1 calc R . . 
H27B H -0.4830 0.3065 0.3424 0.082 Uiso 1 1 calc R . . 
H27C H -0.5464 0.2524 0.4146 0.082 Uiso 1 1 calc R . . 
C26 C -0.3126(3) 0.2266(2) 0.40670(17) 0.0351(6) Uani 1 1 d . . . 
C27 C 0.4616(4) 0.1438(3) 0.5680(2) 0.0541(8) Uani 1 1 d . . . 
H30A H 0.5831 0.1886 0.5968 0.081 Uiso 1 1 calc R . . 
H30B H 0.4469 0.0946 0.5085 0.081 Uiso 1 1 calc R . . 
H30C H 0.4247 0.0930 0.6036 0.081 Uiso 1 1 calc R . . 
C28 C 0.3521(3) 0.2302(2) 0.55996(18) 0.0372(6) Uani 1 1 d . . . 
N1 N 0.2411(4) 0.0550(2) -0.15857(17) 0.0572(7) Uani 1 1 d . . . 
N2 N 0.3089(4) 0.4372(2) 0.05267(17) 0.0592(7) Uani 1 1 d . . . 
N3 N 0.2803(4) 0.4640(2) 0.13776(16) 0.0573(7) Uani 1 1 d . . . 
N4 N 0.0817(3) 0.30777(17) 0.38200(13) 0.0307(4) Uani 1 1 d . . . 
N5 N -0.0374(3) 0.23097(18) 0.60230(13) 0.0317(4) Uani 1 1 d . . . 
N6 N -0.2413(4) 0.0319(2) 0.83124(16) 0.0505(6) Uani 1 1 d . . . 
N7 N -0.2786(4) 0.0510(2) 0.91395(16) 0.0535(7) Uani 1 1 d . . . 
N8 N -0.2215(5) 0.4228(3) 1.1346(2) 0.0738(9) Uani 1 1 d . . . 
O1 O 0.2075(2) 0.26618(15) 0.08130(11) 0.0355(4) Uani 1 1 d . . . 
O2 O -0.1888(2) 0.22760(15) 0.89018(11) 0.0367(4) Uani 1 1 d . . . 
O3 O -0.2802(3) 0.12834(17) 0.38936(14) 0.0494(5) Uani 1 1 d . . . 
O4 O -0.1946(2) 0.32390(15) 0.45861(11) 0.0346(4) Uani 1 1 d . . . 
O5 O 0.1956(2) 0.18430(15) 0.50767(12) 0.0377(4) Uani 1 1 d . . . 
O6 O 0.4165(3) 0.33644(19) 0.60281(18) 0.0732(8) Uani 1 1 d . . . 
O7 O 0.1860(3) 0.46464(16) 0.59111(13) 0.0427(5) Uani 1 1 d D . . 
H2O7 H 0.197(3) 0.5287(16) 0.5750(19) 0.052(9) Uiso 1 1 d D . . 
H1O7 H 0.283(2) 0.447(3) 0.601(2) 0.060(10) Uiso 1 1 d D . . 
  
loop_ 
 _atom_site_aniso_label 
 _atom_site_aniso_U_11 
 _atom_site_aniso_U_22 
 _atom_site_aniso_U_33 
 _atom_site_aniso_U_23 
 _atom_site_aniso_U_13 
 _atom_site_aniso_U_12 
Cu1 0.03383(18) 0.02917(18) 0.02767(17) 0.00859(12) 0.01215(13) 0.01272(12) 
C1 0.0545(17) 0.0294(13) 0.0346(14) 0.0035(11) 0.0172(12) 0.0093(12) 
C2 0.0529(16) 0.0268(13) 0.0374(14) 0.0076(11) 0.0181(12) 0.0063(11) 
C3 0.0358(13) 0.0345(13) 0.0293(13) 0.0086(10) 0.0124(10) 0.0132(11) 
C4 0.0411(14) 0.0310(13) 0.0310(13) 0.0038(10) 0.0131(11) 0.0072(11) 
C5 0.0415(14) 0.0297(13) 0.0380(14) 0.0092(11) 0.0147(12) 0.0084(11) 
C6 0.0449(15) 0.0324(13) 0.0310(13) 0.0058(11) 0.0136(11) 0.0088(11) 
C7 0.0434(15) 0.0370(14) 0.0310(13) 0.0100(11) 0.0134(11) 0.0046(11) 
C8 0.0370(14) 0.0394(14) 0.0291(13) 0.0086(11) 0.0116(11) 0.0085(11) 
C9 0.0596(18) 0.0414(16) 0.0405(15) 0.0080(13) 0.0227(14) 0.0053(13) 
C10 0.0593(19) 0.0560(19) 0.0400(16) 0.0125(14) 0.0264(14) 0.0073(15) 
C11 0.063(2) 0.0572(19) 0.0399(16) 0.0033(14) 0.0209(14) 0.0203(15) 
C12 0.0575(18) 0.0418(16) 0.0410(16) 0.0143(13) 0.0200(13) 0.0111(13) 
C13 0.0432(14) 0.0301(13) 0.0331(13) 0.0065(10) 0.0152(11) 0.0140(11) 
C14 0.0423(14) 0.0289(13) 0.0417(14) 0.0135(11) 0.0155(12) 0.0134(11) 
C15 0.0336(13) 0.0367(14) 0.0309(13) 0.0103(11) 0.0099(10) 0.0114(11) 
C16 0.0610(18) 0.0332(14) 0.0328(14) 0.0059(11) 0.0212(13) 0.0106(12) 
C17 0.0581(17) 0.0282(13) 0.0407(15) 0.0092(11) 0.0245(13) 0.0126(12) 
C18 0.0401(14) 0.0353(14) 0.0298(13) 0.0080(11) 0.0116(11) 0.0104(11) 
C19 0.0398(14) 0.0421(15) 0.0320(13) 0.0164(12) 0.0123(11) 0.0091(11) 
C20 0.0427(15) 0.0440(15) 0.0306(13) 0.0113(12) 0.0105(11) 0.0134(12) 
C21 0.0564(18) 0.0547(18) 0.0400(16) 0.0175(14) 0.0192(14) 0.0121(14) 
C22 0.068(2) 0.083(3) 0.0434(18) 0.0184(17) 0.0300(16) 0.0180(19) 
C23 0.084(3) 0.082(3) 0.0407(18) 0.0049(18) 0.0269(17) 0.034(2) 
C24 0.075(2) 0.0495(18) 0.0453(17) 0.0149(14) 0.0271(16) 0.0163(16) 
C25 0.0407(16) 0.074(2) 0.0522(18) 0.0216(16) 0.0156(14) 0.0171(15) 
C26 0.0371(14) 0.0398(15) 0.0317(13) 0.0117(11) 0.0164(11) 0.0091(11) 
C27 0.0462(17) 0.0581(19) 0.066(2) 0.0237(16) 0.0146(15) 0.0273(14) 
C28 0.0383(15) 0.0412(15) 0.0389(14) 0.0151(12) 0.0161(12) 0.0168(12) 
N1 0.0810(19) 0.0432(14) 0.0487(15) 0.0069(12) 0.0282(14) 0.0165(13) 
N2 0.097(2) 0.0383(14) 0.0437(14) 0.0098(11) 0.0387(14) 0.0051(13) 
N3 0.095(2) 0.0380(13) 0.0420(14) 0.0091(11) 0.0370(14) 0.0088(13) 
N4 0.0356(11) 0.0297(11) 0.0299(11) 0.0084(9) 0.0128(9) 0.0126(9) 
N5 0.0365(11) 0.0312(11) 0.0307(11) 0.0095(9) 0.0123(9) 0.0135(9) 
N6 0.0759(18) 0.0378(13) 0.0429(14) 0.0134(11) 0.0298(13) 0.0112(12) 
N7 0.0827(19) 0.0406(14) 0.0461(14) 0.0173(11) 0.0348(13) 0.0134(13) 
N8 0.105(3) 0.0605(18) 0.0548(17) 0.0040(15) 0.0307(17) 0.0266(17) 
O1 0.0426(10) 0.0332(9) 0.0325(9) 0.0085(7) 0.0176(8) 0.0085(8) 
O2 0.0474(11) 0.0339(9) 0.0316(9) 0.0109(8) 0.0167(8) 0.0105(8) 
O3 0.0549(12) 0.0352(10) 0.0561(12) 0.0073(9) 0.0195(10) 0.0115(9) 
O4 0.0372(10) 0.0332(9) 0.0379(10) 0.0116(8) 0.0137(8) 0.0150(8) 
O5 0.0391(10) 0.0374(10) 0.0410(10) 0.0114(8) 0.0131(8) 0.0187(8) 
O6 0.0508(13) 0.0423(13) 0.1008(19) -0.0003(13) -0.0028(13) 0.0130(10) 
O7 0.0546(13) 0.0295(10) 0.0440(11) 0.0106(8) 0.0174(10) 0.0094(9) 
  
_geom_special_details 
; 
 All esds (except the esd in the dihedral angle between two l.s. planes) 
 are estimated using the full covariance matrix.  The cell esds are taken 
 into account individually in the estimation of esds in distances, angles 
 and torsion angles; correlations between esds in cell parameters are only 
 used when they are defined by crystal symmetry.  An approximate (isotropic) 
 treatment of cell esds is used for estimating esds involving l.s. planes. 
; 
  
loop_ 
 _geom_bond_atom_site_label_1 
 _geom_bond_atom_site_label_2 
 _geom_bond_distance 
 _geom_bond_site_symmetry_2 
 _geom_bond_publ_flag 
Cu1 O5 1.9445(17) . ? 
Cu1 O4 1.9801(17) . ? 
Cu1 N5 2.039(2) . ? 
Cu1 N4 2.046(2) . ? 
Cu1 O7 2.3121(19) . ? 
C1 N4 1.341(3) . ? 
C1 C2 1.376(4) . ? 
C2 C3 1.390(3) . ? 
C3 C4 1.385(4) . ? 
C3 C6 1.454(3) . ? 
C4 C5 1.374(4) . ? 
C5 N4 1.336(3) . ? 
C6 N3 1.283(3) . ? 
C6 O1 1.361(3) . ? 
C7 N2 1.277(3) . ? 
C7 O1 1.363(3) . ? 
C7 C8 1.462(3) . ? 
C8 C12 1.381(4) . ? 
C8 C9 1.382(4) . ? 
C9 C10 1.380(4) . ? 
C10 C11 1.365(4) . ? 
C11 N1 1.335(4) . ? 
C12 N1 1.331(4) . ? 
C13 N5 1.347(3) . ? 
C13 C14 1.370(3) . ? 
C14 C15 1.384(3) . ? 
C15 C16 1.385(4) . ? 
C15 C18 1.460(3) . ? 
C16 C17 1.378(4) . ? 
C17 N5 1.339(3) . ? 
C18 N6 1.280(3) . ? 
C18 O2 1.364(3) . ? 
C19 N7 1.281(4) . ? 
C19 O2 1.360(3) . ? 
C19 C20 1.458(4) . ? 
C20 C24 1.378(4) . ? 
C20 C21 1.381(4) . ? 
C21 C22 1.372(4) . ? 
C22 C23 1.352(5) . ? 
C23 N8 1.340(5) . ? 
C24 N8 1.341(4) . ? 
C25 C26 1.501(4) . ? 
C26 O3 1.235(3) . ? 
C26 O4 1.284(3) . ? 
C27 C28 1.501(4) . ? 
C28 O6 1.218(3) . ? 
C28 O5 1.265(3) . ? 
N2 N3 1.410(3) . ? 
N6 N7 1.405(3) . ? 
  
loop_ 
 _geom_angle_atom_site_label_1 
 _geom_angle_atom_site_label_2 
 _geom_angle_atom_site_label_3 
 _geom_angle 
 _geom_angle_site_symmetry_1 
 _geom_angle_site_symmetry_3 
 _geom_angle_publ_flag 
O5 Cu1 O4 164.10(7) . . ? 
O5 Cu1 N5 88.65(8) . . ? 
O4 Cu1 N5 91.17(8) . . ? 
O5 Cu1 N4 89.12(8) . . ? 
O4 Cu1 N4 90.12(7) . . ? 
N5 Cu1 N4 176.18(8) . . ? 
O5 Cu1 O7 102.02(8) . . ? 
O4 Cu1 O7 93.85(7) . . ? 
N5 Cu1 O7 87.93(8) . . ? 
N4 Cu1 O7 95.57(8) . . ? 
N4 C1 C2 123.1(2) . . ? 
C1 C2 C3 118.8(2) . . ? 
C4 C3 C2 118.3(2) . . ? 
C4 C3 C6 122.9(2) . . ? 
C2 C3 C6 118.8(2) . . ? 
C5 C4 C3 118.8(2) . . ? 
N4 C5 C4 123.5(2) . . ? 
N3 C6 O1 112.7(2) . . ? 
N3 C6 C3 127.3(2) . . ? 
O1 C6 C3 120.0(2) . . ? 
N2 C7 O1 112.4(2) . . ? 
N2 C7 C8 127.7(2) . . ? 
O1 C7 C8 119.8(2) . . ? 
C12 C8 C9 118.5(2) . . ? 
C12 C8 C7 121.5(2) . . ? 
C9 C8 C7 119.9(2) . . ? 
C10 C9 C8 118.6(3) . . ? 
C11 C10 C9 118.4(3) . . ? 
N1 C11 C10 124.4(3) . . ? 
N1 C12 C8 123.5(3) . . ? 
N5 C13 C14 122.8(2) . . ? 
C13 C14 C15 119.4(2) . . ? 
C14 C15 C16 118.4(2) . . ? 
C14 C15 C18 120.9(2) . . ? 
C16 C15 C18 120.8(2) . . ? 
C17 C16 C15 118.7(2) . . ? 
N5 C17 C16 123.3(2) . . ? 
N6 C18 O2 112.6(2) . . ? 
N6 C18 C15 129.2(2) . . ? 
O2 C18 C15 118.2(2) . . ? 
N7 C19 O2 112.6(2) . . ? 
N7 C19 C20 128.4(2) . . ? 
O2 C19 C20 118.9(2) . . ? 
C24 C20 C21 118.6(3) . . ? 
C24 C20 C19 121.2(3) . . ? 
C21 C20 C19 120.2(3) . . ? 
C22 C21 C20 118.6(3) . . ? 
C23 C22 C21 119.1(3) . . ? 
N8 C23 C22 124.2(3) . . ? 
N8 C24 C20 123.2(3) . . ? 
O3 C26 O4 122.1(2) . . ? 
O3 C26 C25 121.7(2) . . ? 
O4 C26 C25 116.2(2) . . ? 
O6 C28 O5 124.9(2) . . ? 
O6 C28 C27 119.5(3) . . ? 
O5 C28 C27 115.6(2) . . ? 
C12 N1 C11 116.5(3) . . ? 
C7 N2 N3 106.6(2) . . ? 
C6 N3 N2 105.8(2) . . ? 
C5 N4 C1 117.4(2) . . ? 
C5 N4 Cu1 119.35(17) . . ? 
C1 N4 Cu1 123.17(16) . . ? 
C17 N5 C13 117.4(2) . . ? 
C17 N5 Cu1 121.38(16) . . ? 
C13 N5 Cu1 121.18(16) . . ? 
C18 N6 N7 106.2(2) . . ? 
C19 N7 N6 106.3(2) . . ? 
C23 N8 C24 116.3(3) . . ? 
C6 O1 C7 102.51(19) . . ? 
C19 O2 C18 102.30(19) . . ? 
C26 O4 Cu1 105.24(15) . . ? 
C28 O5 Cu1 122.90(17) . . ? 
  
loop_ 
 _geom_torsion_atom_site_label_1 
 _geom_torsion_atom_site_label_2 
 _geom_torsion_atom_site_label_3 
 _geom_torsion_atom_site_label_4 
 _geom_torsion 
 _geom_torsion_site_symmetry_1 
 _geom_torsion_site_symmetry_2 
 _geom_torsion_site_symmetry_3 
 _geom_torsion_site_symmetry_4 
 _geom_torsion_publ_flag 
N4 C1 C2 C3 0.7(4) . . . . ? 
C1 C2 C3 C4 -0.7(4) . . . . ? 
C1 C2 C3 C6 179.2(2) . . . . ? 
C2 C3 C4 C5 0.8(4) . . . . ? 
C6 C3 C4 C5 -179.2(2) . . . . ? 
C3 C4 C5 N4 -0.8(4) . . . . ? 
C4 C3 C6 N3 166.1(3) . . . . ? 
C2 C3 C6 N3 -13.8(4) . . . . ? 
C4 C3 C6 O1 -13.5(4) . . . . ? 
C2 C3 C6 O1 166.6(2) . . . . ? 
N2 C7 C8 C12 179.9(3) . . . . ? 
O1 C7 C8 C12 1.6(4) . . . . ? 
N2 C7 C8 C9 2.2(5) . . . . ? 
O1 C7 C8 C9 -176.0(2) . . . . ? 
C12 C8 C9 C10 -0.2(4) . . . . ? 
C7 C8 C9 C10 177.5(3) . . . . ? 
C8 C9 C10 C11 0.8(4) . . . . ? 
C9 C10 C11 N1 -0.3(5) . . . . ? 
C9 C8 C12 N1 -1.0(4) . . . . ? 
C7 C8 C12 N1 -178.7(3) . . . . ? 
N5 C13 C14 C15 0.4(4) . . . . ? 
C13 C14 C15 C16 -0.5(4) . . . . ? 
C13 C14 C15 C18 178.4(2) . . . . ? 
C14 C15 C16 C17 0.5(4) . . . . ? 
C18 C15 C16 C17 -178.4(2) . . . . ? 
C15 C16 C17 N5 -0.4(4) . . . . ? 
C14 C15 C18 N6 0.3(4) . . . . ? 
C16 C15 C18 N6 179.1(3) . . . . ? 
C14 C15 C18 O2 -179.2(2) . . . . ? 
C16 C15 C18 O2 -0.4(4) . . . . ? 
N7 C19 C20 C24 172.1(3) . . . . ? 
O2 C19 C20 C24 -8.9(4) . . . . ? 
N7 C19 C20 C21 -7.6(5) . . . . ? 
O2 C19 C20 C21 171.4(2) . . . . ? 
C24 C20 C21 C22 0.3(4) . . . . ? 
C19 C20 C21 C22 180.0(3) . . . . ? 
C20 C21 C22 C23 -0.7(5) . . . . ? 
C21 C22 C23 N8 0.3(6) . . . . ? 
C21 C20 C24 N8 0.7(5) . . . . ? 
C19 C20 C24 N8 -179.0(3) . . . . ? 
C8 C12 N1 C11 1.5(5) . . . . ? 
C10 C11 N1 C12 -0.8(5) . . . . ? 
O1 C7 N2 N3 1.0(3) . . . . ? 
C8 C7 N2 N3 -177.4(3) . . . . ? 
O1 C6 N3 N2 -0.4(3) . . . . ? 
C3 C6 N3 N2 180.0(3) . . . . ? 
C7 N2 N3 C6 -0.4(4) . . . . ? 
C4 C5 N4 C1 0.8(4) . . . . ? 
C4 C5 N4 Cu1 -175.81(19) . . . . ? 
C2 C1 N4 C5 -0.8(4) . . . . ? 
C2 C1 N4 Cu1 175.7(2) . . . . ? 
O5 Cu1 N4 C5 69.24(19) . . . . ? 
O4 Cu1 N4 C5 -94.88(19) . . . . ? 
N5 Cu1 N4 C5 14.8(12) . . . . ? 
O7 Cu1 N4 C5 171.23(19) . . . . ? 
O5 Cu1 N4 C1 -107.2(2) . . . . ? 
O4 Cu1 N4 C1 88.7(2) . . . . ? 
N5 Cu1 N4 C1 -161.6(11) . . . . ? 
O7 Cu1 N4 C1 -5.2(2) . . . . ? 
C16 C17 N5 C13 0.3(4) . . . . ? 
C16 C17 N5 Cu1 177.6(2) . . . . ? 
C14 C13 N5 C17 -0.3(4) . . . . ? 
C14 C13 N5 Cu1 -177.58(19) . . . . ? 
O5 Cu1 N5 C17 127.8(2) . . . . ? 
O4 Cu1 N5 C17 -68.1(2) . . . . ? 
N4 Cu1 N5 C17 -177.7(11) . . . . ? 
O7 Cu1 N5 C17 25.8(2) . . . . ? 
O5 Cu1 N5 C13 -54.98(19) . . . . ? 
O4 Cu1 N5 C13 109.12(19) . . . . ? 
N4 Cu1 N5 C13 -0.6(12) . . . . ? 
O7 Cu1 N5 C13 -157.06(19) . . . . ? 
O2 C18 N6 N7 -0.3(3) . . . . ? 
C15 C18 N6 N7 -179.8(3) . . . . ? 
O2 C19 N7 N6 -0.4(3) . . . . ? 
C20 C19 N7 N6 178.6(3) . . . . ? 
C18 N6 N7 C19 0.5(3) . . . . ? 
C22 C23 N8 C24 0.7(6) . . . . ? 
C20 C24 N8 C23 -1.2(5) . . . . ? 
N3 C6 O1 C7 0.9(3) . . . . ? 
C3 C6 O1 C7 -179.4(2) . . . . ? 
N2 C7 O1 C6 -1.2(3) . . . . ? 
C8 C7 O1 C6 177.3(2) . . . . ? 
N7 C19 O2 C18 0.3(3) . . . . ? 
C20 C19 O2 C18 -178.9(2) . . . . ? 
N6 C18 O2 C19 0.1(3) . . . . ? 
C15 C18 O2 C19 179.6(2) . . . . ? 
O3 C26 O4 Cu1 1.2(3) . . . . ? 
C25 C26 O4 Cu1 -178.43(18) . . . . ? 
O5 Cu1 O4 C26 1.3(3) . . . . ? 
N5 Cu1 O4 C26 -87.90(16) . . . . ? 
N4 Cu1 O4 C26 88.50(16) . . . . ? 
O7 Cu1 O4 C26 -175.90(15) . . . . ? 
O6 C28 O5 Cu1 -5.0(4) . . . . ? 
C27 C28 O5 Cu1 174.75(18) . . . . ? 
O4 Cu1 O5 C28 -176.5(2) . . . . ? 
N5 Cu1 O5 C28 -87.0(2) . . . . ? 
N4 Cu1 O5 C28 96.1(2) . . . . ? 
O7 Cu1 O5 C28 0.6(2) . . . . ? 
  
loop_ 
 _geom_hbond_atom_site_label_D 
 _geom_hbond_atom_site_label_H 
 _geom_hbond_atom_site_label_A 
 _geom_hbond_distance_DH 
 _geom_hbond_distance_HA 
 _geom_hbond_distance_DA 
 _geom_hbond_angle_DHA 
 _geom_hbond_site_symmetry_A 
O7 H1O7 O6  0.847(10) 1.877(15) 2.658(3) 153(3) . 
O7 H2O7 O4  0.842(10) 1.926(10) 2.762(3) 172(3) 2_566 
  
_diffrn_measured_fraction_theta_max    0.981 
_diffrn_reflns_theta_full              25.50 
_diffrn_measured_fraction_theta_full   0.981 
_refine_diff_density_max    0.325 
_refine_diff_density_min   -0.294 
_refine_diff_density_rms    0.062 

